11
17 58 69 43 67 21 52 24 1
72 38 56 8 12 34 46
71 22 15 51 45 31 76
47 65 75 57 7 32 73 3 20
27 63 49 37 29 54
2 5 30 70 55 35
62 50 61 13 33 59
9 19 28 74 48 39 4
42 16 66 60 18 25 10 6 41 14 36
77 23 44 26 40 64 53 68
11
